
Gurobi 9.0.2 (win64) logging started Sat Oct 10 16:42:53 2020

Changed value of parameter logfile to result\v6.2-20201010T1221\scenario_2030_eff085_cab3000.log
   Prev:   Default: 
Gurobi Optimizer version 9.0.2 build v9.0.2rc0 (win64)
Optimize a model with 1384150 rows, 884815 columns and 3912197 nonzeros
Model fingerprint: 0x31f960a9
Coefficient statistics:
  Matrix range     [1e-07, 3e+05]
  Objective range  [1e+00, 1e+00]
  Bounds range     [0e+00, 0e+00]
  RHS range        [2e-05, 3e+08]
Warning: Model contains large matrix coefficient range
         Consider reformulating model or setting NumericFocus parameter
         to avoid numerical issues.

Concurrent LP optimizer: primal simplex, dual simplex, and barrier
Showing barrier log only...

Presolve removed 1129315 rows and 656241 columns
Presolve time: 3.37s
Presolved: 254835 rows, 342440 columns, 891938 nonzeros

Ordering time: 0.13s

Barrier statistics:
 Dense cols : 9
 AA' NZ     : 8.194e+05
 Factor NZ  : 4.461e+06 (roughly 300 MBytes of memory)
 Factor Ops : 1.125e+08 (less than 1 second per iteration)
 Threads    : 30

                  Objective                Residual
Iter       Primal          Dual         Primal    Dual     Compl     Time
   0  -1.99128770e+16 -1.58516168e+15  5.97e+06 1.56e+04  2.39e+12     4s
   1  -3.04706571e+15 -1.58902144e+15  9.05e+05 4.72e+06  7.82e+11     4s
   2  -1.24325100e+15 -1.31594969e+15  3.67e+05 8.62e+05  2.21e+11     5s
   3  -5.37625501e+14 -1.06589191e+15  1.55e+05 2.46e+05  8.60e+10     5s
   4  -1.23958903e+14 -6.84345769e+14  3.31e+04 6.88e+04  1.97e+10     5s
   5  -3.85051161e+13 -4.31554676e+14  1.00e+04 3.05e+04  7.76e+09     6s
   6  -1.79625469e+13 -2.77938180e+14  4.94e+03 1.26e+04  3.48e+09     6s
   7  -7.75569404e+12 -1.58484717e+14  2.28e+03 2.66e+03  1.14e+09     6s
   8  -1.85746099e+12 -8.35135750e+13  6.86e+02 4.39e+02  2.98e+08     6s
   9   5.82803438e+11 -1.71688967e+13  5.58e+00 5.97e+00  2.69e+07     7s
  10   2.69421509e+11 -1.59550397e+12  1.18e+00 2.68e-01  2.76e+06     7s
  11   1.27029409e+11 -8.30556015e+11  4.73e-01 3.06e-03  1.40e+06     7s
  12   7.03859440e+10 -4.14480956e+11  2.32e-01 5.59e-09  7.08e+05     8s
  13   5.13870318e+10 -2.33349022e+11  1.58e-01 5.59e-09  4.16e+05     8s
  14   2.65395621e+10 -8.46804376e+10  7.20e-02 7.45e-09  1.62e+05     8s
  15   1.73591229e+10 -3.98759259e+10  3.96e-02 7.45e-09  8.36e+04     8s
  16   1.75192223e+10 -2.90909586e+10  3.84e-02 7.45e-09  6.83e+04     9s
  17   1.24470841e+10 -1.13913178e+10  1.90e-02 7.45e-09  3.49e+04     9s
  18   8.61173374e+09 -2.60962737e+09  5.12e-03 7.45e-09  1.63e+04     9s
  19   7.93902799e+09  3.31317319e+09  3.36e-03 7.45e-09  6.75e+03    10s
  20   7.49275609e+09  4.01913342e+09  2.21e-03 7.45e-09  5.06e+03    10s
  21   7.39355671e+09  4.30159444e+09  1.95e-03 5.59e-09  4.50e+03    10s
  22   7.30677825e+09  4.87508196e+09  1.73e-03 5.59e-09  3.54e+03    10s
  23   7.15055952e+09  5.07637793e+09  1.34e-03 5.59e-09  3.02e+03    11s
  24   6.93409082e+09  5.56630142e+09  8.09e-04 3.73e-09  1.99e+03    11s
  25   6.84057148e+09  5.82461116e+09  5.88e-04 3.73e-09  1.47e+03    11s
  26   6.77900474e+09  5.95924295e+09  4.48e-04 2.79e-09  1.19e+03    12s
  27   6.71551403e+09  6.03612628e+09  2.97e-04 2.79e-09  9.84e+02    12s
  28   6.65777837e+09  6.16157562e+09  1.70e-04 2.79e-09  7.18e+02    12s
  29   6.64101664e+09  6.25369857e+09  1.36e-04 1.86e-09  5.61e+02    13s
  30   6.61394427e+09  6.33287643e+09  8.26e-05 1.86e-09  4.07e+02    13s
  31   6.60366452e+09  6.36030672e+09  6.30e-05 2.79e-09  3.52e+02    14s
  32   6.59900294e+09  6.38558535e+09  5.47e-05 1.86e-09  3.09e+02    14s
  33   6.58501873e+09  6.42348923e+09  2.88e-05 1.86e-09  2.33e+02    14s
  34   6.58112736e+09  6.43597695e+09  2.08e-05 1.86e-09  2.10e+02    15s
  35   6.57591457e+09  6.50666361e+09  1.18e-05 1.86e-09  1.00e+02    15s
  36   6.57153077e+09  6.52419316e+09  4.88e-06 1.86e-09  6.84e+01    15s
  37   6.57063773e+09  6.53467883e+09  3.76e-06 1.86e-09  5.19e+01    16s
  38   6.56962656e+09  6.53861098e+09  2.49e-06 1.86e-09  4.48e+01    16s
  39   6.56895096e+09  6.54173403e+09  1.77e-06 1.86e-09  3.93e+01    16s
  40   6.56872958e+09  6.54747364e+09  1.51e-06 1.86e-09  3.07e+01    16s
  41   6.56827116e+09  6.54916505e+09  1.04e-06 1.86e-09  2.76e+01    17s
  42   6.56791023e+09  6.55115716e+09  6.73e-07 2.79e-09  2.42e+01    17s
  43   6.56772922e+09  6.55657681e+09  3.87e-07 1.86e-09  1.61e+01    17s
  44   6.56759603e+09  6.55893837e+09  2.73e-07 1.86e-09  1.25e+01    18s
  45   6.56737711e+09  6.56184155e+09  8.01e-08 1.86e-09  7.99e+00    18s
  46   6.56735011e+09  6.56221790e+09  6.78e-08 1.86e-09  7.41e+00    18s
  47   6.56732785e+09  6.56271887e+09  7.63e-08 1.86e-09  6.65e+00    19s
  48   6.56730270e+09  6.56341602e+09  6.46e-08 2.79e-09  5.61e+00    19s
  49   6.56731109e+09  6.56402490e+09  8.27e-08 2.79e-09  4.74e+00    19s
  50   6.56727559e+09  6.56487038e+09  2.88e-07 1.86e-09  3.47e+00    19s
  51   6.56727329e+09  6.56585926e+09  2.65e-08 1.86e-09  2.04e+00    20s
  52   6.56726846e+09  6.56624514e+09  1.34e-06 1.86e-09  1.48e+00    20s
  53   6.56725446e+09  6.56658873e+09  4.67e-07 1.86e-09  9.61e-01    20s
  54   6.56725190e+09  6.56675267e+09  5.14e-07 1.86e-09  7.21e-01    21s
  55   6.56724940e+09  6.56678319e+09  4.72e-07 1.86e-09  6.73e-01    21s
  56   6.56724593e+09  6.56703887e+09  8.19e-07 1.86e-09  2.99e-01    21s
  57   6.56724365e+09  6.56713378e+09  6.33e-07 1.86e-09  1.59e-01    21s
  58   6.56724066e+09  6.56722029e+09  3.50e-07 2.79e-09  2.94e-02    22s
  59   6.56723705e+09  6.56723550e+09  9.14e-08 2.79e-09  2.24e-03    22s
  60   6.56723576e+09  6.56723575e+09  4.03e-06 1.18e-07  6.45e-06    22s
  61   6.56723576e+09  6.56723575e+09  1.58e-03 1.18e-07  6.44e-06    23s

Barrier solved model in 61 iterations and 22.73 seconds
Optimal objective 6.56723576e+09

Crossover log...

   75127 DPushes remaining with DInf 0.0000000e+00                23s
    1083 DPushes remaining with DInf 0.0000000e+00                25s
       0 DPushes remaining with DInf 0.0000000e+00                26s
Warning: Markowitz tolerance tightened to 0.5

  103351 PPushes remaining with PInf 2.4853805e-02                26s
   41567 PPushes remaining with PInf 1.0100161e-01                71s
   16543 PPushes remaining with PInf 5.6866902e-03                76s
       0 PPushes remaining with PInf 0.0000000e+00                97s

  Push phase complete: Pinf 0.0000000e+00, Dinf 2.9181655e-08     97s

Iteration    Objective       Primal Inf.    Dual Inf.      Time
  128375    6.5672358e+09   0.000000e+00   0.000000e+00     99s

Solved with barrier
Solved in 128375 iterations and 99.37 seconds
Optimal objective  6.567235753e+09
Warning: unscaled primal violation = 0.000872873 and residual = 0.000872873
